ACTORES = {Actor1, Actor2, Actor3, Actor4, Actor5} ;

Escenas = [| 0,1,0,0,0,0,1,10
           | 0,1,1,1,0,1,0,20
           | 0,0,0,0,1,1,1,15
           | 0,1,0,1,1,0,1,18
           | 1,0,1,0,0,1,0,22|]; 
           
Duracion = [2,1,1,1,3,4,3];


% ----------
% Sol = [5, 7, 2, 4, 6, 3, 1];
% costo = 658;
% XD = 7;
% Actor_Costo = [40, 140, 180, 144, 154];
% ----------
% ==========
% Finished in 1h 21m 33s.